c 3 __UCLIBC_HAS_FLOATS__
c 2 __UCLIBC_HAS_XLOCALE__
c 4 __UCLIBC_HAS_LOCALE__
c 6 __UCLIBC_HAS_HEXADECIMAL_FLOATS__
c 5 __UCLIBC_HAS_WCHAR__
c 1 __UCLIBC_HAS_GLIBC_DIGIT_GROUPING__
p cnf 6 1
-3 2 -4 -1 5 6 1
